
Gurobi 10.0.3 (linux64, gurobi_cl) logging started Thu Jan 16 21:25:48 2025

Set parameter Username
Set parameter TimeLimit to value 3600
Set parameter Heuristics to value 0.25
Set parameter MIPFocus to value 1
Set parameter LogFile to value "gurobi_1737058762.log"
Set parameter Threads to value 4
Academic license - for non-commercial use only - expires 2025-12-13
Using license file /home/familie/gurobi.lic

Gurobi Optimizer version 10.0.3 build v10.0.3rc0 (linux64)
Copyright (c) 2023, Gurobi Optimization, LLC

Read LP format model from file /tmp/29e3aabf0a114e9e8685d9db7e7329de-pulp.lp
Reading time = 8.84 seconds
Minimize_total_costs: 134382 rows, 124812 columns, 39965574 nonzeros

CPU model: AMD Ryzen 7 PRO 4750U with Radeon Graphics, instruction set [SSE2|AVX|AVX2]
Thread count: 8 physical cores, 16 logical processors, using up to 4 threads

Optimize a model with 134382 rows, 124812 columns and 39965574 nonzeros
Model fingerprint: 0xdfd28e46
Variable types: 0 continuous, 124812 integer (124812 binary)
Coefficient statistics:
  Matrix range     [1e+00, 1e+04]
  Objective range  [1e-02, 8e+01]
  Bounds range     [1e+00, 1e+00]
  RHS range        [1e+00, 5e+02]
Presolve removed 0 rows and 0 columns (presolve time = 6s) ...
Presolve removed 0 rows and 0 columns (presolve time = 12s) ...
Presolve removed 0 rows and 0 columns (presolve time = 15s) ...
Presolve removed 0 rows and 0 columns (presolve time = 20s) ...
Presolve removed 0 rows and 0 columns (presolve time = 25s) ...
Presolve removed 0 rows and 0 columns (presolve time = 30s) ...
Presolve removed 0 rows and 0 columns (presolve time = 35s) ...
Presolve removed 0 rows and 0 columns (presolve time = 40s) ...
Presolve removed 1872 rows and 0 columns (presolve time = 46s) ...
Presolve removed 1872 rows and 0 columns (presolve time = 51s) ...
Presolve removed 1944 rows and 0 columns (presolve time = 56s) ...
Presolve removed 1944 rows and 0 columns (presolve time = 60s) ...
Presolve removed 1944 rows and 0 columns (presolve time = 65s) ...
Presolve removed 1944 rows and 0 columns (presolve time = 70s) ...
Presolve removed 1944 rows and 0 columns (presolve time = 75s) ...
Presolve removed 1944 rows and 0 columns (presolve time = 80s) ...
Presolve removed 1944 rows and 0 columns (presolve time = 86s) ...
Presolve removed 1944 rows and 0 columns (presolve time = 91s) ...
Presolve removed 1944 rows and 0 columns (presolve time = 95s) ...
Presolve removed 1944 rows and 0 columns (presolve time = 100s) ...
Presolve removed 1944 rows and 0 columns (presolve time = 105s) ...
Presolve removed 1944 rows and 0 columns (presolve time = 110s) ...
Presolve removed 1944 rows and 0 columns (presolve time = 115s) ...
Presolve removed 1944 rows and 0 columns (presolve time = 120s) ...
Presolve removed 1944 rows and 0 columns (presolve time = 125s) ...
Presolve removed 1944 rows and 0 columns (presolve time = 130s) ...
Presolve removed 1944 rows and 0 columns (presolve time = 135s) ...
Presolve removed 1944 rows and 0 columns (presolve time = 140s) ...
Presolve removed 1944 rows and 0 columns (presolve time = 145s) ...
Presolve removed 1944 rows and 0 columns (presolve time = 150s) ...
Presolve removed 1944 rows and 0 columns (presolve time = 155s) ...
Presolve removed 1944 rows and 0 columns (presolve time = 160s) ...
Presolve removed 1944 rows and 0 columns (presolve time = 165s) ...
Presolve removed 1944 rows and 0 columns (presolve time = 170s) ...
Presolve removed 1944 rows and 0 columns (presolve time = 175s) ...
Presolve removed 1944 rows and 0 columns (presolve time = 180s) ...
Presolve removed 1944 rows and 0 columns (presolve time = 185s) ...
Presolve removed 1944 rows and 0 columns (presolve time = 190s) ...
Presolve removed 1944 rows and 0 columns (presolve time = 195s) ...
Presolve removed 1944 rows and 0 columns (presolve time = 200s) ...
Presolve removed 1944 rows and 0 columns (presolve time = 205s) ...
Presolve removed 1944 rows and 0 columns (presolve time = 210s) ...
Presolve removed 1944 rows and 0 columns (presolve time = 215s) ...
Presolve removed 1944 rows and 0 columns (presolve time = 220s) ...
Presolve removed 1944 rows and 0 columns (presolve time = 225s) ...
Presolve removed 1944 rows and 0 columns
Presolve time: 225.24s
Presolved: 132438 rows, 124812 columns, 39754492 nonzeros
Variable types: 0 continuous, 124812 integer (124812 binary)
Deterministic concurrent LP optimizer: primal simplex, dual simplex, and barrier
Showing barrier log only...

Root barrier log...


Barrier performed 0 iterations in 244.01 seconds (273.23 work units)
Barrier solve interrupted - model solved by another algorithm

Concurrent spin time: 0.82s (can be avoided by choosing Method=3)

Solved with dual simplex

Root relaxation: objective 1.647248e-01, 950 iterations, 13.91 seconds (19.93 work units)
Total elapsed time = 245.28s

    Nodes    |    Current Node    |     Objective Bounds      |     Work
 Expl Unexpl |  Obj  Depth IntInf | Incumbent    BestBd   Gap | It/Node Time

     0     0    0.16472    0  390          -    0.16472      -     -  248s
     0     0    0.29343    0  494          -    0.29343      -     -  286s
     0     0    0.29343    0  477          -    0.29343      -     -  288s
     0     0    0.29343    0  489          -    0.29343      -     -  290s
     0     0    0.29343    0  451          -    0.29343      -     -  291s
     0     0    0.29343    0  439          -    0.29343      -     -  293s
     0     0    0.29464    0  433          -    0.29464      -     -  322s
     0     0  700.00023    0  671          -  700.00023      -     -  349s
     0     0  700.00024    0  679          -  700.00024      -     -  381s
     0     0  700.00078    0  649          -  700.00078      -     -  396s
     0     0  700.00078    0  601          -  700.00078      -     -  425s
     0     0  700.00209    0  609          -  700.00209      -     -  437s
     0     0  700.00627    0  599          -  700.00627      -     -  468s
     0     0  700.00627    0  441          -  700.00627      -     -  580s
     0     2  700.00627    0  441          -  700.00627      -     - 1623s
     1     4  700.00627    1  439          -  700.00627      -  1083 1629s
     3     8  700.00627    2  460          -  700.00627      -   503 1635s
    11    16  777.01647    3  564          -  700.00627      -   431 1642s
    15    20  700.00627    4  589          -  700.00627      -   452 1645s
    27    30  700.00627    5  572          -  700.00627      -   329 1652s
    36    37  700.00627    7  649          -  700.00627      -   284 1655s
    44    45  700.00627    8  655          -  700.00627      -   249 1660s
    57    59  700.00627   10  600          -  700.00627      -   237 1666s
    68    69  700.01845   11  623          -  700.00627      -   234 1671s
    72    76  700.01845   11  597          -  700.00627      -   231 1675s
    81    82  700.01864   13  700          -  700.00627      -   233 1681s
    93   103  700.01864   14  688          -  700.00627      -   220 1689s
   114   109  700.03098   16  811          -  700.00627      -   209 1696s
   129   118  700.03105   18  810          -  700.00627      -   199 1705s
   151   126  700.32523   22  777          -  700.00627      -   189 1716s
   168   137  700.32523   23  787          -  700.00627      -   197 1728s
   193   148 infeasible   26               -  700.00627      -   198 1741s
   213   177  777.03544   30  698          -  700.00627      -   206 1757s
   242   212  777.03544   38  698          -  700.00627      -   209 1780s
   289   256  700.01845    8  657          -  700.00627      -   205 1816s
   346   312  700.01858   14  728          -  700.00627      -   201 1913s
   445   452  777.08361   27  720          -  700.00627      -   215 1986s
   683   651  700.01756   20  676          -  700.00627      -   176 2062s
   970   848  777.04571   33  642          -  700.00627      -   145 2132s
